p cnf 433 918
432 433 0
-432 -433 0
54 432 0
-54 -432 0
430 431 0
-430 -431 0
53 430 0
-53 -430 0
428 429 0
-428 -429 0
428 -427 -50 0
-428 427 0
-428 50 0
426 427 0
-426 -427 0
425 426 0
-425 -426 0
425 -424 -421 0
-425 424 0
-425 421 0
423 424 0
-423 -424 0
422 423 0
-422 -423 0
52 422 0
-52 -422 0
420 421 0
-420 -421 0
51 420 0
-51 -420 0
418 419 0
-418 -419 0
418 -417 -48 0
-418 417 0
-418 48 0
416 417 0
-416 -417 0
415 416 0
-415 -416 0
415 -414 -413 0
-415 414 0
-415 413 0
423 414 0
-423 -414 0
412 413 0
-412 -413 0
49 412 0
-49 -412 0
410 411 0
-410 -411 0
410 -409 -46 0
-410 409 0
-410 46 0
408 409 0
-408 -409 0
407 408 0
-407 -408 0
407 -406 -405 0
-407 406 0
-407 405 0
423 406 0
-423 -406 0
404 405 0
-404 -405 0
47 404 0
-47 -404 0
402 403 0
-402 -403 0
402 -401 -39 0
-402 401 0
-402 39 0
400 401 0
-400 -401 0
399 400 0
-399 -400 0
398 399 0
-398 -399 0
397 398 0
-397 -398 0
396 397 0
-396 -397 0
-396 395 390 40 0
396 -395 0
396 -390 0
396 -40 0
395 -394 -393 0
-395 394 0
-395 393 0
45 394 0
-45 -394 0
392 393 0
-392 -393 0
391 392 0
-391 -392 0
44 391 0
-44 -391 0
390 -394 -389 -386 -384 0
-390 394 0
-390 389 0
-390 386 0
-390 384 0
388 389 0
-388 -389 0
387 388 0
-387 -388 0
43 387 0
-43 -387 0
385 386 0
-385 -386 0
42 385 0
-42 -385 0
383 384 0
-383 -384 0
382 383 0
-382 -383 0
41 382 0
-41 -382 0
380 381 0
-380 -381 0
380 -379 -37 0
-380 379 0
-380 37 0
378 379 0
-378 -379 0
377 378 0
-377 -378 0
376 377 0
-376 -377 0
375 376 0
-375 -376 0
374 375 0
-374 -375 0
-374 373 38 372 0
374 -373 0
374 -38 0
374 -372 0
373 -394 -393 0
-373 394 0
-373 393 0
372 -394 -388 -386 -384 0
-372 394 0
-372 388 0
-372 386 0
-372 384 0
370 371 0
-370 -371 0
370 -369 -35 0
-370 369 0
-370 35 0
368 369 0
-368 -369 0
367 368 0
-367 -368 0
367 -366 -360 0
-367 366 0
-367 360 0
365 366 0
-365 -366 0
364 365 0
-364 -365 0
363 364 0
-363 -364 0
362 363 0
-362 -363 0
361 362 0
-361 -362 0
380 361 0
-380 -361 0
359 360 0
-359 -360 0
36 359 0
-36 -359 0
357 358 0
-357 -358 0
357 -356 -33 0
-357 356 0
-357 33 0
355 356 0
-355 -356 0
354 355 0
-354 -355 0
354 -353 -352 0
-354 353 0
-354 352 0
-353 -394 -365 0
353 394 0
353 365 0
351 352 0
-351 -352 0
34 351 0
-34 -351 0
349 350 0
-349 -350 0
349 -348 -31 0
-349 348 0
-349 31 0
347 348 0
-347 -348 0
346 347 0
-346 -347 0
346 -345 -337 0
-346 345 0
-346 337 0
344 345 0
-344 -345 0
343 344 0
-343 -344 0
342 343 0
-342 -343 0
341 342 0
-341 -342 0
340 341 0
-340 -341 0
339 340 0
-339 -340 0
338 339 0
-338 -339 0
402 338 0
-402 -338 0
336 337 0
-336 -337 0
32 336 0
-32 -336 0
334 335 0
-334 -335 0
334 -333 -29 0
-334 333 0
-334 29 0
332 333 0
-332 -333 0
331 332 0
-331 -332 0
331 -330 -329 0
-331 330 0
-331 329 0
-330 -394 -344 0
330 394 0
330 344 0
328 329 0
-328 -329 0
30 328 0
-30 -328 0
326 327 0
-326 -327 0
325 326 0
-325 -326 0
325 -324 -323 0
-325 324 0
-325 323 0
28 324 0
-28 -324 0
322 323 0
-322 -323 0
321 322 0
-321 -322 0
320 321 0
-320 -321 0
354 320 0
-354 -320 0
318 319 0
-318 -319 0
317 318 0
-317 -318 0
316 317 0
-316 -317 0
315 316 0
-315 -316 0
314 315 0
-314 -315 0
313 314 0
-313 -314 0
312 313 0
-312 -313 0
311 312 0
-311 -312 0
310 311 0
-310 -311 0
367 310 0
-367 -310 0
308 309 0
-308 -309 0
307 308 0
-307 -308 0
306 307 0
-306 -307 0
305 306 0
-305 -306 0
304 305 0
-304 -305 0
304 -303 -298 0
-304 303 0
-304 298 0
302 303 0
-302 -303 0
301 302 0
-301 -302 0
300 301 0
-300 -301 0
299 300 0
-299 -300 0
346 299 0
-346 -299 0
297 298 0
-297 -298 0
296 297 0
-296 -297 0
295 296 0
-295 -296 0
415 295 0
-415 -295 0
293 294 0
-293 -294 0
292 293 0
-292 -293 0
291 292 0
-291 -292 0
-291 290 288 0
291 -290 0
291 -288 0
290 -303 -289 0
-290 303 0
-290 289 0
298 289 0
-298 -289 0
288 -343 -303 0
-288 343 0
-288 303 0
286 287 0
-286 -287 0
286 -285 -26 0
-286 285 0
-286 26 0
284 285 0
-284 -285 0
283 284 0
-283 -284 0
282 283 0
-282 -283 0
281 282 0
-281 -282 0
280 281 0
-280 -281 0
-280 279 278 276 0
280 -279 0
280 -278 0
280 -276 0
279 -394 -393 0
-279 394 0
-279 393 0
278 -324 -27 -277 0
-278 324 0
-278 27 0
-278 277 0
323 277 0
-323 -277 0
276 -394 -388 -275 -384 0
-276 394 0
-276 388 0
-276 275 0
-276 384 0
386 275 0
-386 -275 0
273 274 0
-273 -274 0
273 -272 -24 0
-273 272 0
-273 24 0
271 272 0
-271 -272 0
270 271 0
-270 -271 0
270 -269 -261 0
-270 269 0
-270 261 0
268 269 0
-268 -269 0
267 268 0
-267 -268 0
266 267 0
-266 -267 0
265 266 0
-265 -266 0
264 265 0
-264 -265 0
263 264 0
-263 -264 0
262 263 0
-262 -263 0
286 262 0
-286 -262 0
260 261 0
-260 -261 0
25 260 0
-25 -260 0
258 259 0
-258 -259 0
257 258 0
-257 -258 0
256 257 0
-256 -257 0
255 256 0
-255 -256 0
255 -254 -253 0
-255 254 0
-255 253 0
-254 -394 -268 0
254 394 0
254 268 0
252 253 0
-252 -253 0
23 252 0
-23 -252 0
250 251 0
-250 -251 0
250 -249 -22 0
-250 249 0
-250 22 0
248 249 0
-248 -249 0
255 248 0
-255 -248 0
246 247 0
-246 -247 0
245 246 0
-245 -246 0
245 -324 -257 -277 0
-245 324 0
-245 257 0
-245 277 0
243 244 0
-243 -244 0
242 243 0
-242 -243 0
242 -324 -241 -237 -277 0
-242 324 0
-242 241 0
-242 237 0
-242 277 0
240 241 0
-240 -241 0
239 240 0
-239 -240 0
238 239 0
-238 -239 0
331 238 0
-331 -238 0
257 237 0
-257 -237 0
235 236 0
-235 -236 0
234 235 0
-234 -235 0
233 234 0
-233 -234 0
232 233 0
-232 -233 0
231 232 0
-231 -232 0
231 -230 -225 0
-231 230 0
-231 225 0
229 230 0
-229 -230 0
228 229 0
-228 -229 0
227 228 0
-227 -228 0
226 227 0
-226 -227 0
270 226 0
-270 -226 0
224 225 0
-224 -225 0
223 224 0
-223 -224 0
222 223 0
-222 -223 0
425 222 0
-425 -222 0
220 221 0
-220 -221 0
219 220 0
-219 -220 0
218 219 0
-218 -219 0
-218 217 215 0
218 -217 0
218 -215 0
217 -230 -216 0
-217 230 0
-217 216 0
225 216 0
-225 -216 0
215 -267 -230 0
-215 267 0
-215 230 0
213 214 0
-213 -214 0
213 -212 -20 0
-213 212 0
-213 20 0
211 212 0
-211 -212 0
210 211 0
-210 -211 0
209 210 0
-209 -210 0
208 209 0
-208 -209 0
207 208 0
-207 -208 0
-207 206 205 204 0
207 -206 0
207 -205 0
207 -204 0
206 -394 -393 0
-206 394 0
-206 393 0
205 -394 -389 -275 -384 0
-205 394 0
-205 389 0
-205 275 0
-205 384 0
204 -237 -277 -203 0
-204 237 0
-204 277 0
-204 203 0
203 -324 -21 -202 0
-203 324 0
-203 21 0
-203 202 0
241 202 0
-241 -202 0
200 201 0
-200 -201 0
200 -199 -18 0
-200 199 0
-200 18 0
198 199 0
-198 -199 0
197 198 0
-197 -198 0
197 -196 -188 0
-197 196 0
-197 188 0
195 196 0
-195 -196 0
194 195 0
-194 -195 0
193 194 0
-193 -194 0
192 193 0
-192 -193 0
191 192 0
-191 -192 0
190 191 0
-190 -191 0
189 190 0
-189 -190 0
213 189 0
-213 -189 0
187 188 0
-187 -188 0
19 187 0
-19 -187 0
185 186 0
-185 -186 0
184 185 0
-184 -185 0
183 184 0
-183 -184 0
182 183 0
-182 -183 0
182 -181 -180 0
-182 181 0
-182 180 0
-181 -394 -195 0
181 394 0
181 195 0
179 180 0
-179 -180 0
17 179 0
-17 -179 0
177 178 0
-177 -178 0
177 -176 -16 0
-177 176 0
-177 16 0
175 176 0
-175 -176 0
182 175 0
-182 -175 0
173 174 0
-173 -174 0
172 173 0
-172 -173 0
172 -237 -277 -171 0
-172 237 0
-172 277 0
-172 171 0
171 -324 -184 -202 0
-171 324 0
-171 184 0
-171 202 0
169 170 0
-169 -170 0
168 169 0
-168 -169 0
-168 167 166 163 0
168 -167 0
168 -166 0
168 -163 0
167 -324 -184 0
-167 324 0
-167 184 0
166 -184 -165 0
-166 184 0
-166 165 0
164 165 0
-164 -165 0
15 164 0
-15 -164 0
163 -165 -162 -158 -154 0
-163 165 0
-163 162 0
-163 158 0
-163 154 0
161 162 0
-161 -162 0
160 161 0
-160 -161 0
159 160 0
-159 -160 0
197 159 0
-197 -159 0
157 158 0
-157 -158 0
156 157 0
-156 -157 0
155 156 0
-155 -156 0
407 155 0
-407 -155 0
154 -202 -237 -277 0
-154 202 0
-154 237 0
-154 277 0
152 153 0
-152 -153 0
151 152 0
-151 -152 0
-151 150 149 146 0
151 -150 0
151 -149 0
151 -146 0
150 -324 -241 0
-150 324 0
-150 241 0
149 -241 -148 0
-149 241 0
-149 148 0
147 148 0
-147 -148 0
14 147 0
-14 -147 0
146 -148 -302 -298 -145 0
-146 148 0
-146 302 0
-146 298 0
-146 145 0
145 -144 -237 -277 0
-145 144 0
-145 237 0
-145 277 0
184 144 0
-184 -144 0
142 143 0
-142 -143 0
141 142 0
-141 -142 0
-141 140 139 136 0
141 -140 0
141 -139 0
141 -136 0
140 -324 -257 0
-140 324 0
-140 257 0
139 -257 -138 0
-139 257 0
-139 138 0
137 138 0
-137 -138 0
13 137 0
-13 -137 0
136 -138 -229 -225 -135 0
-136 138 0
-136 229 0
-136 225 0
-136 135 0
135 -144 -202 -277 0
-135 144 0
-135 202 0
-135 277 0
133 134 0
-133 -134 0
132 133 0
-132 -133 0
-132 131 130 127 0
132 -131 0
132 -130 0
132 -127 0
131 -324 -323 0
-131 324 0
-131 323 0
130 -129 -323 0
-130 129 0
-130 323 0
128 129 0
-128 -129 0
12 128 0
-12 -128 0
127 -237 -313 -126 0
-127 237 0
-127 313 0
-127 126 0
126 -129 -144 -202 0
-126 129 0
-126 144 0
-126 202 0
124 125 0
-124 -125 0
123 124 0
-123 -124 0
122 123 0
-122 -123 0
121 122 0
-121 -122 0
120 121 0
-120 -121 0
120 -119 -158 0
-120 119 0
-120 158 0
162 119 0
-162 -119 0
117 118 0
-117 -118 0
116 117 0
-116 -117 0
115 116 0
-115 -116 0
-115 114 112 0
115 -114 0
115 -112 0
114 -119 -113 0
-114 119 0
-114 113 0
158 113 0
-158 -113 0
112 -194 -119 0
-112 194 0
-112 119 0
111 -110 -10 0
-111 110 0
-111 10 0
109 110 0
-109 -110 0
108 109 0
-108 -109 0
108 -107 -106 0
-108 107 0
-108 106 0
423 107 0
-423 -107 0
105 106 0
-105 -106 0
11 105 0
-11 -105 0
104 -103 -8 0
-104 103 0
-104 8 0
102 103 0
-102 -103 0
101 102 0
-101 -102 0
101 -100 -99 0
-101 100 0
-101 99 0
423 100 0
-423 -100 0
98 99 0
-98 -99 0
9 98 0
-9 -98 0
97 -96 -6 0
-97 96 0
-97 6 0
95 96 0
-95 -96 0
94 95 0
-94 -95 0
94 -93 -92 0
-94 93 0
-94 92 0
423 93 0
-423 -93 0
91 92 0
-91 -92 0
7 91 0
-7 -91 0
90 -89 -4 0
-90 89 0
-90 4 0
88 89 0
-88 -89 0
87 88 0
-87 -88 0
87 -86 -85 0
-87 86 0
-87 85 0
423 86 0
-423 -86 0
84 85 0
-84 -85 0
5 84 0
-5 -84 0
83 -82 -2 0
-83 82 0
-83 2 0
81 82 0
-81 -82 0
80 81 0
-80 -81 0
79 80 0
-79 -80 0
78 79 0
-78 -79 0
78 -392 -77 -383 0
-78 392 0
-78 77 0
-78 383 0
76 77 0
-76 -77 0
3 76 0
-3 -76 0
75 -324 -323 0
-75 324 0
-75 323 0
74 -324 -241 -237 -277 0
-74 324 0
-74 241 0
-74 237 0
-74 277 0
73 -72 -1 0
-73 72 0
-73 1 0
71 72 0
-71 -72 0
70 71 0
-70 -71 0
69 70 0
-69 -70 0
68 69 0
-68 -69 0
67 68 0
-67 -68 0
-67 66 64 63 60 0
67 -66 0
67 -64 0
67 -63 0
67 -60 0
66 -298 -384 -65 0
-66 298 0
-66 384 0
-66 65 0
65 -389 -386 -302 0
-65 389 0
-65 386 0
-65 302 0
64 -388 -386 -313 -384 0
-64 388 0
-64 386 0
-64 313 0
-64 384 0
63 -62 -61 0
-63 62 0
-63 61 0
62 -162 -158 -302 -298 0
-62 162 0
-62 158 0
-62 302 0
-62 298 0
61 -229 -225 -313 -393 0
-61 229 0
-61 225 0
-61 313 0
-61 393 0
-60 59 58 56 0
60 -59 0
60 -58 0
60 -56 0
77 59 0
-77 -59 0
58 -158 -384 -57 0
-58 158 0
-58 384 0
-58 57 0
57 -389 -275 -162 0
-57 389 0
-57 275 0
-57 162 0
56 -225 -384 -55 0
-56 225 0
-56 384 0
-56 55 0
55 -388 -275 -229 0
-55 388 0
-55 275 0
-55 229 0
